language ESSENCE' 1.0

letting n_classes be 26
letting n_options be 5
letting n_cars be 200
letting quantity_Function1D be
        [4, 6, 59, 10, 1, 13, 23, 3, 11, 6, 1, 7, 2, 1, 1, 5, 2, 1, 14, 17, 2, 2, 1, 1, 1, 6; int(1..26)]
letting usage_RelationAsSet_Explicit_1 be
        [1, 1, 2, 2, 3, 4, 4, 5, 5, 5, 6, 6, 7, 8, 8, 8, 8, 9, 10, 10, 11, 11, 11, 12, 12, 12, 13, 13, 14, 14, 14, 15,
         15, 15, 15, 16, 16, 17, 17, 18, 18, 19, 20, 21, 21, 21, 22, 22, 22, 23, 23, 23, 23, 24, 24, 24, 25, 25, 26;
             int(1..59)]
letting usage_RelationAsSet_Explicit_2 be
        [1, 3, 1, 4, 2, 2, 4, 1, 4, 5, 1, 2, 3, 1, 2, 3, 4, 5, 2, 3, 1, 3, 5, 1, 2, 4, 3, 5, 1, 2, 5, 1, 2, 3, 5, 3, 4,
         1, 5, 4, 5, 4, 1, 2, 3, 4, 1, 3, 4, 1, 2, 4, 5, 1, 2, 3, 3, 5, 2;
             int(1..59)]
letting blksize_Function1D be [2, 3, 3, 5, 5; int(1..5)]
letting maxcars_Function1D be [1, 2, 1, 2, 1; int(1..5)]
letting fin1 be 26
letting fin2 be 59
letting fin3 be 5
letting fin4 be 2
letting fin5 be 5
letting fin6 be 5
letting fin7 be 59
